131 1176 10 0 1439
1949 799 1 1105 1163
1707 117 4 951 1023
751 2159 1 397 497
2049 292 3 588 648
1162 74 4 1093 1126
1805 1 4 1115 1124
1293 701 2 281 383
2415 2425 2 939 942
691 667 2 382 452
1041 942 4 478 490
